W=7;
H=4;

MAX_TIME=30;
MAX_TRACKS=4;

TARGET=(1,7);

TRAINS=[(4,4,TOP),(1,1,RIGHT)];
DECOYS=[];

INIT_POS=[
(1,1,STRAIGHT_RL),
(1,2,STRAIGHT_RL),
(1,6,STRAIGHT_RL),
(1,7,STRAIGHT_RL),
(2,4,STRAIGHT_TD),
(4,4,STRAIGHT_TD),
];
TUNNEL_PAIRS=[];

GATES=[
(1,2,1,false),
];
ACTIVATIONS=[
(2,4,1),
];

DSWITCHES=[];

STATIONS=[];
